solution status: time limit reached
objective value:                                  201
shell_j_$_119                                       1 	(obj:0)
shell_j_$_98__6                                     1 	(obj:0)
shell_j_$_115                                       1 	(obj:0)
shell_i_$_4__6                                      1 	(obj:0)
shell_j_$_4__6                                      1 	(obj:0)
shell_j_$_20                                        1 	(obj:0)
shell_i_$_148__6                                    1 	(obj:0)
shell_j_$_134                                       1 	(obj:0)
shell_j_$_147__6                                    1 	(obj:0)
shell_j_$_86__6                                     1 	(obj:0)
shell_j_$_100__6                                    1 	(obj:0)
shell_j_$_123__6                                    1 	(obj:0)
shell_j_$_17__6                                     1 	(obj:0)
shell_j_$_22__6                                     1 	(obj:0)
shell_i_thing.thing.chamber[1].thingy.r2c__6                    1 	(obj:0)
shell_j_thing.thing.chamber[1].thingy.r2c__6                    1 	(obj:0)
shell_i_$_122__6                                    1 	(obj:0)
shell_j_$_122__6                                    1 	(obj:0)
shell_j_$_2__6                                      1 	(obj:0)
shell_j_$_5__6                                      1 	(obj:0)
shell_i_$_12__6                                     1 	(obj:0)
shell_i_$_26__6                                     1 	(obj:0)
shell_j_$_26__6                                     1 	(obj:0)
shell_j_$_7__6                                      1 	(obj:0)
shell_i_$_104__6                                    1 	(obj:0)
shell_i_$_125__6                                    1 	(obj:0)
shell_j_$_125__6                                    1 	(obj:0)
shell_j_$_6                                         1 	(obj:0)
shell_j_$_80                                        1 	(obj:0)
shell_j_$_101__6                                    1 	(obj:0)
shell_j_$_8__6                                      1 	(obj:0)
shell_j_$_106                                       1 	(obj:0)
shell_j_$_81                                        1 	(obj:0)
shell_i_$_138                                       1 	(obj:0)
shell_j_$_76                                        1 	(obj:0)
shell_i_thing.thing.chamber[2].thingy.v4__6                    1 	(obj:0)
shell_j_thing.thing.chamber[2].thingy.v4__6                    1 	(obj:0)
shell_j_$_88__6                                     1 	(obj:0)
shell_j_$_137                                       1 	(obj:0)
shell_i_thing.thing.chamber[1].thingy.r4c__6                    1 	(obj:0)
shell_i_$_23                                        1 	(obj:0)
shell_j_$_10                                        1 	(obj:0)
shell_j_$_70                                        1 	(obj:0)
shell_j_$_72                                        1 	(obj:0)
shell_j_$_96__6                                     1 	(obj:0)
shell_j_$_78                                        1 	(obj:0)
shell_j_$_11                                        1 	(obj:0)
shell_i_$_16__6                                     1 	(obj:0)
shell_j_thing.thing.chamber[0].thingy.r1c__6                    1 	(obj:0)
shell_i_$_19__6                                     1 	(obj:0)
shell_i_$_130                                       1 	(obj:0)
shell_j_$_111                                       1 	(obj:0)
shell_j_$_3__6                                      1 	(obj:0)
shell_i_$_25                                        1 	(obj:0)
shell_j_$_102__6                                    1 	(obj:0)
shell_i_$_120__6                                    1 	(obj:0)
shell_i_$_21                                        1 	(obj:0)
shell_i_$_18__6                                     1 	(obj:0)
shell_j_$_18__6                                     1 	(obj:0)
shell_j_$_93__6                                     1 	(obj:0)
shell_i_$_84__6                                     1 	(obj:0)
shell_j_$_9__6                                      1 	(obj:0)
shell_j_$_143__6                                    1 	(obj:0)
$_6_z                                              18 	(obj:0)
$_4__6_z                                           25 	(obj:0)
$_100__6_x                                          7 	(obj:0)
$_80_x                                              1 	(obj:0)
$_80_y                                              8 	(obj:0)
$_80_z                                             21 	(obj:0)
$_100__6_y                                          8 	(obj:0)
$_100__6_z                                         17 	(obj:0)
$_101__6_x                                          7 	(obj:0)
$_101__6_y                                          8 	(obj:0)
$_101__6_z                                         19 	(obj:0)
$_98__6_y                                           8 	(obj:0)
$_98__6_z                                          18 	(obj:0)
$_8__6_x                                            1 	(obj:0)
$_8__6_y                                            8 	(obj:0)
$_8__6_z                                            9 	(obj:0)
$_123__6_x                                         -2 	(obj:0)
$_123__6_y                                          8 	(obj:0)
$_106_x                                             4 	(obj:0)
$_106_y                                             8 	(obj:0)
$_106_z                                            20 	(obj:0)
$_123__6_z                                         21 	(obj:0)
$_20_x                                              4 	(obj:0)
$_81_x                                              2 	(obj:0)
$_81_y                                              8 	(obj:0)
$_81_z                                             21 	(obj:0)
$_20_y                                              8 	(obj:0)
$_17__6_x                                           2 	(obj:0)
$_138_x                                             8 	(obj:0)
$_138_y                                             4 	(obj:0)
$_138_z                                            21 	(obj:0)
$_17__6_y                                           8 	(obj:0)
$_17__6_z                                          25 	(obj:0)
$_76_x                                              4 	(obj:0)
$_76_y                                              8 	(obj:0)
$_76_z                                             24 	(obj:0)
$_20_z                                             16 	(obj:0)
$_119_z                                            18 	(obj:0)
thing.thing.chamber[2].thingy.v4__6_x                    8 	(obj:0)
thing.thing.chamber[2].thingy.v4__6_y                    8 	(obj:0)
thing.thing.chamber[2].thingy.v4__6_z                   15 	(obj:0)
$_22__6_x                                           2 	(obj:0)
$_22__6_y                                           8 	(obj:0)
$_88__6_x                                           6 	(obj:0)
$_88__6_y                                           8 	(obj:0)
$_88__6_z                                          13 	(obj:0)
$_22__6_z                                          15 	(obj:0)
$_119_x                                             6 	(obj:0)
$_137_x                                             6 	(obj:0)
$_137_y                                             8 	(obj:0)
$_137_z                                            16 	(obj:0)
$_148__6_x                                          8 	(obj:0)
thing.thing.chamber[1].thingy.r2c__6_x                    8 	(obj:0)
thing.thing.chamber[1].thingy.r4c__6_x                    8 	(obj:0)
thing.thing.chamber[1].thingy.r4c__6_y                    7 	(obj:0)
thing.thing.chamber[1].thingy.r4c__6_z                   15 	(obj:0)
thing.thing.chamber[1].thingy.r2c__6_y                    8 	(obj:0)
thing.thing.chamber[1].thingy.r2c__6_z                   19 	(obj:0)
$_23_x                                              8 	(obj:0)
$_23_z                                             17 	(obj:0)
$_148__6_z                                         25 	(obj:0)
$_10_x                                              4 	(obj:0)
$_10_y                                              8 	(obj:0)
$_10_z                                             15 	(obj:0)
$_122__6_x                                          8 	(obj:0)
$_122__6_y                                          8 	(obj:0)
$_70_x                                              5 	(obj:0)
$_70_y                                              8 	(obj:0)
$_70_z                                             24 	(obj:0)
$_122__6_z                                         17 	(obj:0)
$_115_x                                             4 	(obj:0)
$_72_x                                              5 	(obj:0)
$_72_y                                              8 	(obj:0)
$_72_z                                             21 	(obj:0)
$_115_y                                             8 	(obj:0)
$_2__6_x                                            1 	(obj:0)
$_96__6_x                                           6 	(obj:0)
$_96__6_y                                           8 	(obj:0)
$_96__6_z                                          17 	(obj:0)
$_2__6_y                                            8 	(obj:0)
$_2__6_z                                           25 	(obj:0)
$_78_x                                              2 	(obj:0)
$_78_y                                              8 	(obj:0)
$_78_z                                             24 	(obj:0)
$_134_x                                             4 	(obj:0)
$_134_y                                             8 	(obj:0)
$_11_x                                              5 	(obj:0)
$_11_y                                              8 	(obj:0)
$_11_z                                             12 	(obj:0)
$_5__6_x                                           -2 	(obj:0)
$_5__6_y                                            8 	(obj:0)
$_16__6_x                                           8 	(obj:0)
$_16__6_y                                           7 	(obj:0)
$_16__6_z                                          18 	(obj:0)
$_5__6_z                                           25 	(obj:0)
$_134_z                                            18 	(obj:0)
thing.thing.chamber[0].thingy.r1c__6_x                    2 	(obj:0)
thing.thing.chamber[0].thingy.r1c__6_y                    8 	(obj:0)
thing.thing.chamber[0].thingy.r1c__6_z                   20 	(obj:0)
$_115_z                                            19 	(obj:0)
$_12__6_x                                           8 	(obj:0)
$_19__6_x                                           8 	(obj:0)
$_19__6_z                                          23 	(obj:0)
$_12__6_y                                           2 	(obj:0)
$_12__6_z                                          22 	(obj:0)
$_130_x                                             8 	(obj:0)
$_130_y                                             4 	(obj:0)
$_130_z                                            20 	(obj:0)
$_119_y                                             8 	(obj:0)
$_147__6_x                                          5 	(obj:0)
$_111_x                                             5 	(obj:0)
$_111_y                                             8 	(obj:0)
$_111_z                                            18 	(obj:0)
$_26__6_x                                           8 	(obj:0)
$_26__6_y                                           8 	(obj:0)
$_3__6_y                                            8 	(obj:0)
$_3__6_z                                           16 	(obj:0)
$_26__6_z                                          16 	(obj:0)
$_147__6_y                                          8 	(obj:0)
$_25_x                                              8 	(obj:0)
$_25_y                                              8 	(obj:0)
$_25_z                                             20 	(obj:0)
$_147__6_z                                         15 	(obj:0)
$_102__6_x                                          2 	(obj:0)
$_102__6_y                                          8 	(obj:0)
$_102__6_z                                         18 	(obj:0)
$_7__6_y                                            8 	(obj:0)
$_7__6_z                                           25 	(obj:0)
$_120__6_x                                          8 	(obj:0)
$_120__6_y                                          7 	(obj:0)
$_120__6_z                                         16 	(obj:0)
$_4__6_x                                            8 	(obj:0)
$_21_x                                              8 	(obj:0)
$_21_y                                              4 	(obj:0)
$_21_z                                             18 	(obj:0)
$_104__6_x                                          8 	(obj:0)
$_104__6_y                                          2 	(obj:0)
$_18__6_x                                           8 	(obj:0)
$_18__6_y                                           8 	(obj:0)
$_18__6_z                                          22 	(obj:0)
$_104__6_z                                         15 	(obj:0)
$_86__6_x                                           8 	(obj:0)
$_93__6_x                                           7 	(obj:0)
$_93__6_y                                           8 	(obj:0)
$_93__6_z                                          12 	(obj:0)
$_86__6_y                                           8 	(obj:0)
$_125__6_x                                          8 	(obj:0)
$_84__6_x                                           8 	(obj:0)
$_84__6_y                                           2 	(obj:0)
$_84__6_z                                          17 	(obj:0)
$_125__6_y                                          8 	(obj:0)
$_125__6_z                                         21 	(obj:0)
$_9__6_y                                            8 	(obj:0)
$_9__6_z                                           19 	(obj:0)
$_86__6_z                                          23 	(obj:0)
$_4__6_y                                            8 	(obj:0)
$_143__6_x                                          5 	(obj:0)
$_143__6_y                                          8 	(obj:0)
$_143__6_z                                         16 	(obj:0)
$_6_x                                               8 	(obj:0)
$_6_y                                               8 	(obj:0)
x287                                                1 	(obj:1)
x289                                                2 	(obj:1)
x292                                                1 	(obj:1)
x296                                                3 	(obj:1)
x300                                                6 	(obj:1)
x302                                                4 	(obj:1)
x305                                                3 	(obj:1)
x308                                                4 	(obj:1)
x311                                                2 	(obj:1)
x316                                                3 	(obj:1)
x322                                                2 	(obj:1)
x323                                                2 	(obj:1)
x326                                                6 	(obj:1)
x329                                                6 	(obj:1)
x333                                                2 	(obj:1)
x334                                                1 	(obj:1)
x338                                                6 	(obj:1)
x341                                                6 	(obj:1)
x345                                                6 	(obj:1)
x350                                                3 	(obj:1)
x354                                                5 	(obj:1)
x355                                                4 	(obj:1)
x358                                                3 	(obj:1)
x361                                                4 	(obj:1)
x362                                                4 	(obj:1)
x368                                                6 	(obj:1)
x370                                                5 	(obj:1)
x371                                                4 	(obj:1)
x374                                                3 	(obj:1)
x378                                                4 	(obj:1)
x381                                                3 	(obj:1)
x382                                                2 	(obj:1)
x383                                                1 	(obj:1)
x388                                                1 	(obj:1)
x391                                                5 	(obj:1)
x394                                                1 	(obj:1)
x395                                                1 	(obj:1)
x397                                                1 	(obj:1)
x400                                                3 	(obj:1)
x402                                                6 	(obj:1)
x403                                                1 	(obj:1)
x406                                                2 	(obj:1)
x416                                                3 	(obj:1)
x421                                                2 	(obj:1)
x424                                                6 	(obj:1)
x425                                                3 	(obj:1)
x432                                                4 	(obj:1)
x434                                                1 	(obj:1)
x437                                                6 	(obj:1)
x439                                                6 	(obj:1)
x443                                                2 	(obj:1)
x448                                                6 	(obj:1)
x457                                                6 	(obj:1)
x459                                                2 	(obj:1)
x460                                                5 	(obj:1)
x461                                                6 	(obj:1)
x463                                                5 	(obj:1)
